/* Objective function */
max: 0.75x1 + 4.55x2 + 3.25x3 + 4.25x4;

/* Constraints */
// 70000 >= 2x1 + 4x2 + 3x3 + 6x4;
2x1 + 4x2 + 3x3 + 6x4 <= 70000;
// 80000 >= 3x1 + 2x2 + 3x3 + 4x4;
3x1 + 2x2 + 3x3 + 4x4 <= 80000;
// 60000 >= 2x1 + 3x2 + 2x3 + 5x4;
2x1 + 3x2 + 2x3 + 5x4 <= 60000;
/* 210000 = 2x1 + 4x2 + 3x3 + 6x4
       + 3x1 + 2x2 + 3x3 + 4x4
       + 2x1 + 3x2 + 2x3 + 5x4; */
/* 2x1 + 4x2 + 3x3 + 6x4
+ 3x1 + 2x2 + 3x3 + 4x4
+ 2x1 + 3x2 + 2x3 + 5x4 <= 210000; */
x1 >= 2000;
x2 >= 1000;
x3 >= 1500;
x4 >= 1800;